Cu Ge S                                 
   1.00000000000000     
     3.2247960000000000   -5.6438300000000003    0.0315720000000000
     3.2247960000000000    5.6438300000000003    0.0315720000000000
    -2.1019459999999999    0.0000000000000000    6.0755369999999997
   Cu   Ge   S 
     4     2     6
Direct
  0.6184429999999992  0.1211709999999968  0.1195329999999970
  0.1211709999999968  0.6184429999999992  0.6195329999999970
  0.9629570000000029  0.7903220000000033  0.1188130000000029
  0.7903220000000033  0.9629570000000029  0.6188130000000029
  0.4397319999999993  0.2672809999999970  0.5990469999999988
  0.2672809999999970  0.4397319999999993  0.0990469999999988
  0.0794980000000010  0.9132134046804055  0.4973630000000000
  0.5714030000000037  0.4123639999999966  0.9801840000000013
  0.7371109999999987  0.2500619999999998  0.4950490000000016
  0.4123639999999966  0.5714029999999966  0.4801840000000013
  0.9116750000000025  0.0794980000000010  0.9973630000000000
  0.2500619999999998  0.7371109999999987  0.9950490000000016
 
  0.00000000E+00  0.00000000E+00  0.00000000E+00
  0.00000000E+00  0.00000000E+00  0.00000000E+00
  0.00000000E+00  0.00000000E+00  0.00000000E+00
  0.00000000E+00  0.00000000E+00  0.00000000E+00
  0.00000000E+00  0.00000000E+00  0.00000000E+00
  0.00000000E+00  0.00000000E+00  0.00000000E+00
  0.00000000E+00  0.00000000E+00  0.00000000E+00
  0.00000000E+00  0.00000000E+00  0.00000000E+00
  0.00000000E+00  0.00000000E+00  0.00000000E+00
  0.00000000E+00  0.00000000E+00  0.00000000E+00
  0.00000000E+00  0.00000000E+00  0.00000000E+00
  0.00000000E+00  0.00000000E+00  0.00000000E+00
