Cu Ge S
   1.0
     3.2247960000000000   -5.6438300000000003    0.0315720000000000
     3.2247960000000000    5.6438300000000003    0.0315720000000000
    -2.1019459999999999    0.0000000000000000    6.0755369999999997
   4    2    6
Direct
  0.6184430000000000  0.1211710000000000  0.1195330000000000
  0.1211710000000000  0.6184430000000000  0.6195330000000000
  0.9629570000000000  0.7903220000000001  0.1188130000000000
  0.7903220000000000  0.9629570000000001  0.6188130000000001
  0.4397320000000000  0.2672810000000000  0.5990470000000001
  0.2672810000000000  0.4397320000000000  0.0990470000000000
  0.0794980000000000  0.9116750000000000  0.4973630000000001
  0.5729414046804084  0.4123640000000001  0.9801840000000002
  0.7371110000000000  0.2500620000000001  0.4950490000000000
  0.4123640000000000  0.5714030000000000  0.4801840000000000
  0.9116750000000000  0.0794980000000000  0.9973630000000000
  0.2500620000000000  0.7371110000000000  0.9950490000000001
