Cu4 Ge2 S6
1.0
3.224796 -5.643830 0.031572
3.224796 5.643830 0.031572
-2.101946 0.000000 6.075537
Cu Ge S
4 2 6
direct
0.618443 0.121171 0.119533 Cu
0.121171 0.618443 0.619533 Cu
0.962957 0.790322 0.118813 Cu
0.790322 0.962957 0.618813 Cu
0.439732 0.267281 0.599047 Ge
0.267281 0.439732 0.099047 Ge
0.079498 0.911675 0.497363 S
0.571403 0.412364 0.980184 S
0.737111 0.250062 0.495049 S
0.412364 0.571403 0.480184 S
0.911675 0.079498 0.997363 S
0.250062 0.737111 0.995049 S
